c FILE /home/rafael/Documents/HappySet/MIHS/inputs/happygen/output/graph_d_regular_k3_p0.3_v50_20241127_082601.txt
c SOURCE This is a d-regular graph formed for the happy graph colouring problem.
c DESCRIPTION It was generated using the problem generator of Rhyd Lewis
c
c GRAPH STATS
c Seed                             = -1899513390
c Number of Nodes                  = 50
c Number of colours k              = 3
c Number of pre-assignments        = 15
c Degree of all vertices           = 6
c Density                          = 0.122449
c 
c The degrees of nodes 1 to 50, respectively, are as follows 
c [6, 6, 6, 6, 6, 6, 6, 6, 6, 6, 6, 6, 6, 6, 6, 6, 6, 6, 6, 6, 6, 6, 6, 6, 6, 6, 
c  6, 6, 6, 6, 6, 6, 6, 6, 6, 6, 6, 6, 6, 6, 6, 6, 6, 6, 6, 6, 6, 6, 6, 6] 
c  
p edge 50 150 3
e 1 11
e 1 19
e 1 20
e 1 33
e 1 35
e 1 43
e 2 4
e 2 8
e 2 15
e 2 36
e 2 42
e 2 48
e 3 22
e 3 25
e 3 31
e 3 38
e 3 42
e 3 43
e 4 24
e 4 28
e 4 37
e 4 39
e 4 50
e 5 9
e 5 14
e 5 17
e 5 24
e 5 34
e 5 47
e 6 8
e 6 10
e 6 13
e 6 22
e 6 26
e 6 46
e 7 15
e 7 22
e 7 27
e 7 29
e 7 31
e 7 41
e 8 10
e 8 16
e 8 26
e 8 38
e 9 27
e 9 39
e 9 43
e 9 45
e 9 46
e 10 19
e 10 32
e 10 39
e 10 47
e 11 22
e 11 23
e 11 25
e 11 46
e 11 47
e 12 22
e 12 27
e 12 28
e 12 33
e 12 38
e 12 43
e 13 14
e 13 21
e 13 25
e 13 30
e 13 36
e 14 16
e 14 18
e 14 20
e 14 32
e 15 34
e 15 37
e 15 47
e 15 49
e 16 20
e 16 35
e 16 38
e 16 47
e 17 23
e 17 28
e 17 44
e 17 47
e 17 49
e 18 26
e 18 32
e 18 39
e 18 48
e 18 50
e 19 21
e 19 23
e 19 31
e 19 33
e 20 26
e 20 28
e 20 30
e 21 36
e 21 38
e 21 44
e 21 49
e 22 40
e 23 30
e 23 32
e 23 45
e 24 32
e 24 34
e 24 42
e 24 44
e 25 28
e 25 37
e 25 41
e 26 42
e 26 49
e 27 29
e 27 39
e 27 41
e 28 40
e 29 32
e 29 35
e 29 37
e 29 41
e 30 40
e 30 42
e 30 44
e 31 34
e 31 45
e 31 46
e 33 35
e 33 40
e 33 50
e 34 40
e 34 49
e 35 45
e 35 46
e 36 41
e 36 45
e 36 48
e 37 45
e 37 50
e 38 43
e 39 46
e 40 44
e 41 48
e 42 43
e 44 48
e 48 50
e 49 50
n 1 1
n 6 1
n 8 1
n 14 3
n 15 2
n 18 3
n 21 3
n 23 3
n 24 3
n 28 3
n 32 3
n 39 3
n 40 3
n 43 1
n 44 3
